NAME : X_38_seed_123_id_17
TYPE : CVRP
DIMENSION : 275
EDGE_WEIGHT_TYPE : EUC_2D
CAPACITY : 10
NODE_COORD_SECTION
1	30	222
2	212	117
3	100	342
4	368	130
5	366	162
6	277	244
7	232	23
8	109	385
9	431	183
10	363	91
11	188	169
12	296	468
13	339	103
14	46	315
15	29	167
16	205	113
17	372	79
18	165	174
19	92	90
20	102	305
21	68	287
22	329	244
23	18	453
24	116	353
25	142	345
26	163	201
27	298	267
28	236	117
29	333	117
30	352	127
31	156	354
32	294	47
33	4	317
34	188	18
35	288	162
36	109	344
37	344	125
38	374	153
39	193	118
40	33	349
41	280	242
42	214	57
43	155	506
44	453	132
45	409	137
46	155	192
47	394	135
48	226	153
49	133	326
50	22	353
51	96	475
52	171	33
53	33	400
54	170	77
55	155	291
56	104	391
57	359	186
58	221	108
59	270	107
60	154	345
61	361	163
62	161	340
63	275	77
64	379	117
65	72	90
66	314	116
67	382	168
68	192	192
69	225	134
70	368	130
71	436	64
72	345	53
73	175	353
74	391	250
75	82	390
76	3	331
77	20	370
78	159	409
79	72	142
80	349	170
81	163	403
82	203	187
83	322	369
84	344	147
85	434	139
86	235	195
87	233	192
88	458	78
89	380	139
90	276	348
91	151	115
92	313	108
93	357	238
94	373	102
95	252	323
96	57	379
97	167	38
98	117	187
99	149	258
100	326	59
101	374	114
102	388	133
103	91	358
104	199	125
105	310	133
106	368	100
107	206	49
108	58	192
109	221	72
110	135	166
111	90	362
112	329	70
113	131	315
114	251	157
115	348	153
116	201	119
117	337	156
118	298	194
119	181	351
120	355	103
121	22	247
122	65	341
123	353	121
124	360	162
125	222	123
126	231	68
127	163	31
128	213	118
129	368	87
130	483	38
131	346	32
132	204	148
133	122	373
134	144	150
135	158	334
136	183	403
137	173	166
138	20	346
139	179	94
140	112	116
141	62	339
142	74	239
143	56	335
144	217	109
145	387	131
146	131	320
147	224	122
148	266	24
149	365	123
150	403	151
151	401	96
152	381	80
153	275	233
154	187	105
155	140	393
156	256	127
157	354	90
158	166	46
159	190	89
160	72	269
161	196	182
162	385	79
163	129	359
164	202	119
165	462	106
166	185	136
167	368	176
168	349	100
169	411	150
170	141	397
171	76	261
172	462	184
173	212	111
174	52	268
175	84	400
176	49	345
177	421	262
178	176	373
179	154	319
180	89	347
181	409	152
182	390	212
183	331	148
184	379	241
185	19	238
186	354	90
187	160	456
188	315	98
189	429	70
190	185	168
191	140	299
192	389	120
193	422	131
194	325	40
195	164	128
196	362	44
197	325	95
198	389	123
199	354	137
200	204	60
201	387	131
202	335	124
203	468	114
204	120	140
205	112	430
206	231	99
207	349	147
208	353	149
209	108	381
210	378	102
211	185	47
212	354	61
213	226	170
214	222	66
215	121	352
216	347	68
217	115	207
218	176	357
219	167	142
220	371	130
221	237	134
222	92	89
223	81	325
224	192	260
225	234	104
226	208	284
227	389	74
228	368	13
229	175	84
230	282	571
231	330	90
232	156	271
233	58	274
234	152	369
235	470	218
236	142	320
237	80	351
238	142	89
239	178	96
240	181	366
241	406	144
242	68	338
243	457	218
244	367	128
245	319	381
246	255	123
247	357	58
248	116	356
249	365	158
250	371	135
251	156	134
252	371	263
253	222	155
254	398	107
255	241	257
256	255	48
257	167	364
258	388	142
259	339	152
260	291	207
261	199	141
262	277	175
263	170	172
264	361	106
265	67	240
266	179	98
267	479	274
268	56	357
269	213	110
270	38	336
271	353	170
272	216	358
273	136	229
274	264	57
275	62	345
DEMAND_SECTION
1	0
2	1
3	1
4	1
5	1
6	1
7	1
8	1
9	1
10	1
11	1
12	1
13	1
14	1
15	1
16	1
17	1
18	1
19	1
20	1
21	1
22	1
23	1
24	1
25	1
26	1
27	1
28	1
29	1
30	1
31	1
32	1
33	1
34	1
35	1
36	1
37	1
38	1
39	1
40	1
41	1
42	1
43	1
44	1
45	1
46	1
47	1
48	1
49	1
50	1
51	1
52	1
53	1
54	1
55	1
56	1
57	1
58	1
59	1
60	1
61	1
62	1
63	1
64	1
65	1
66	1
67	1
68	1
69	1
70	1
71	1
72	1
73	1
74	1
75	1
76	1
77	1
78	1
79	1
80	1
81	1
82	1
83	1
84	1
85	1
86	1
87	1
88	1
89	1
90	1
91	1
92	1
93	1
94	1
95	1
96	1
97	1
98	1
99	1
100	1
101	1
102	1
103	1
104	1
105	1
106	1
107	1
108	1
109	1
110	1
111	1
112	1
113	1
114	1
115	1
116	1
117	1
118	1
119	1
120	1
121	1
122	1
123	1
124	1
125	1
126	1
127	1
128	1
129	1
130	1
131	1
132	1
133	1
134	1
135	1
136	1
137	1
138	1
139	1
140	1
141	1
142	1
143	1
144	1
145	1
146	1
147	1
148	1
149	1
150	1
151	1
152	1
153	1
154	1
155	1
156	1
157	1
158	1
159	1
160	1
161	1
162	1
163	1
164	1
165	1
166	1
167	1
168	1
169	1
170	1
171	1
172	1
173	1
174	1
175	1
176	1
177	1
178	1
179	1
180	1
181	1
182	1
183	1
184	1
185	1
186	1
187	1
188	1
189	1
190	1
191	1
192	1
193	1
194	1
195	1
196	1
197	1
198	1
199	1
200	1
201	1
202	1
203	1
204	1
205	1
206	1
207	1
208	1
209	1
210	1
211	1
212	1
213	1
214	1
215	1
216	1
217	1
218	1
219	1
220	1
221	1
222	1
223	1
224	1
225	1
226	1
227	1
228	1
229	1
230	1
231	1
232	1
233	1
234	1
235	1
236	1
237	1
238	1
239	1
240	1
241	1
242	1
243	1
244	1
245	1
246	1
247	1
248	1
249	1
250	1
251	1
252	1
253	1
254	1
255	1
256	1
257	1
258	1
259	1
260	1
261	1
262	1
263	1
264	1
265	1
266	1
267	1
268	1
269	1
270	1
271	1
272	1
273	1
274	1
275	1
DEPOT_SECTION
1
-1
EOF
